BCC Xx 
1.0
6.36000000 0.00000000 0.00000000
0.00000000 6.36000000 0.00000000
0.00000000 0.00000000 6.36000000
 W
16
Cartesian
0.00000000 0.00000000 0.00000000
1.59000000 1.59000000 1.59000000
0.00000000 0.00000000 3.18000000
1.59000000 1.59000000 4.77000000
0.00000000 3.18000000 0.00000000
1.59000000 4.77000000 1.59000000
0.00000000 3.18000000 3.18000000
1.59000000 4.77000000 4.77000000
3.18000000 0.00000000 0.00000000
4.77000000 1.59000000 1.59000000
3.18000000 0.00000000 3.18000000
4.77000000 1.59000000 4.77000000
3.18000000 3.18000000 0.00000000
4.77000000 4.77000000 1.59000000
3.18000000 3.18000000 3.18000000
4.77000000 4.77000000 4.77000000

0.00000000 0.00000000 0.00000000
0.00000000 0.00000000 0.00000000
0.00000000 0.00000000 0.00000000
0.00000000 0.00000000 0.00000000
0.00000000 0.00000000 0.00000000
0.00000000 0.00000000 0.00000000
-0.08446981 0.01407830 0.00281566
0.00000000 0.00000000 0.00000000
0.00000000 0.00000000 0.00000000
0.00000000 0.00000000 0.00000000
0.00000000 0.00000000 0.00000000
0.00000000 0.00000000 0.00000000
0.00000000 0.00000000 0.00000000
0.00000000 0.00000000 0.00000000
0.00000000 0.00000000 0.00000000
0.00000000 0.00000000 0.00000000
