BCC Xx 16
3.18
2 0 0 
0 2 0 
0 0 2
W Re
13 3
Direct 
0.00000000 0.00000000 0.00000000
0.25000000 0.25000000 0.25000000
0.00000000 0.00000000 0.50000000
0.00000000 0.50000000 0.00000000
0.25000000 0.75000000 0.25000000
0.00000000 0.50000000 0.50000000
0.25000000 0.75000000 0.75000000
0.75000000 0.25000000 0.25000000
0.50000000 0.00000000 0.50000000
0.75000000 0.25000000 0.75000000
0.50000000 0.50000000 0.00000000
0.75000000 0.75000000 0.25000000
0.50000000 0.50000000 0.50000000
0.50000000 0.00000000 0.00000000
0.25000000 0.25000000 0.75000000
0.75000000 0.75000000 0.75000000

0.00000000 0.00000000 0.00000000
0.00000000 0.00000000 0.00000000
0.00000000 0.00000000 0.00000000
0.00000000 0.00000000 0.00000000
0.00000000 0.00000000 0.00000000
0.00000000 0.00000000 0.00000000
0.08446981 0.01407830 0.00281566
0.00000000 0.00000000 0.00000000
0.00000000 0.00000000 0.00000000
0.00000000 0.00000000 0.00000000
0.00000000 0.00000000 0.00000000
0.00000000 0.00000000 0.00000000
0.00000000 0.00000000 0.00000000
0.00000000 0.00000000 0.00000000
0.00000000 0.00000000 0.00000000
0.00000000 0.00000000 0.00000000
